
  23    0


   0  11 2 3 4 7 8 9 18 19 20 21 22 
   7   6 17 14 13 11 10 6 
   9   3 14 10 5 
   6   3 12 11 10 
   7   2 16 11 
   5   1 15 
   5   1 13 
   8   1 12 
   5   1 10 
   3   1 23
   4   1 23
   4   1 23
   5   1 23
  10   1 23
   9   1 23
   7   1 23
   4   1 23
   7   1 23
   1   1 23
   3   1 23
   6   1 23
   4   1 23
   0   0 
